% File represents an instance of a Composite Structure problem to be solved by a CP framework
% Created on 2025-03-26 10:41:15.460
T = 58;
n = 9;
m = 12;
edges = [(1, 2),
(4, 5),
(7, 8),
(3, 2),
(6, 5),
(8, 9),
(1, 4),
(7, 4),
(2, 5),
(8, 5),
(3, 6),
(6, 9)];
counts = [|4, 26, 4, 24,
|4, 26, 4, 20,
|4, 28, 4, 20,
|4, 22, 4, 22,
|4, 22, 4, 18,
|4, 26, 4, 20,
|4, 22, 4, 28,
|4, 22, 4, 24,
|4, 22, 4, 18|];
